%nprocs=16
%mem=16GB
%chk=pyrd7_conf-2.chk
# B3LYP/6-31G(d,p) symmetry=loose empiricaldispersion=GD3BJ int=(grid=ultrafine) opt freq=noraman

 pyrd7.xyz

0 1
F    -3.69980    2.89910    1.18900
C    -2.74780    2.26160    1.87150
F    -1.81740    3.15120    2.22210
C    -2.16350    1.12210    1.03670
C    -0.78470    0.88310    1.00610
C    -0.25780    -0.16010    0.23570
C    1.24600    -0.43230    0.20030
F    1.74160    0.03230    -0.94560
F    1.88470    0.16270    1.20930
F    1.48400    -1.74260    0.26960
C    -1.12920    -0.96460    -0.50770
C    -2.51240    -0.74740    -0.49450
C    -3.42890    -1.61160    -1.28960
C    -3.09320    -2.04150    -2.58190
N    -3.89280    -2.82900    -3.34430
C    -5.08160    -3.21830    -2.82240
C    -5.51050    -2.84010    -1.54820
C    -6.84260    -3.31720    -1.00020
C    -4.66710    -2.03170    -0.78000
C    -3.01320    0.30230    0.28500
F    -3.28440    1.75290    2.97970
H    -0.11910    1.51120    1.58410
H    -0.72460    -1.77910    -1.09300
H    -2.16430    -1.74200    -3.04520
H    -5.69310    -3.84700    -3.45370
H    -7.12350    -4.27900    -1.43120
H    -6.78840    -3.46430    0.07920
H    -7.62820    -2.59190    -1.21410
H    -4.97070    -1.74230    0.21580
H    -4.07750    0.49300    0.29750

--Link1--
%nprocs=16
%mem=16GB
%chk=pyrd7_conf-2.chk
# M062X/def2tzvp int=(grid=ultrafine) pop=nbo7 polar prop=efg volume guess=read geom=check

 pyrd7.xyz

0 1

--Link1--
%nprocs=16
%mem=16GB
%chk=pyrd7_conf-2.chk
# M062X/def2tzvp int=(grid=ultrafine) nmr=giao guess=read geom=check

 pyrd7.xyz

0 1

