%nprocs=16
%mem=16GB
%chk=pyrd4_conf-4.chk
# B3LYP/6-31G(d,p) symmetry=loose empiricaldispersion=GD3BJ int=(grid=ultrafine) opt freq=noraman

 pyrd4.xyz

0 1
O    2.65890    1.13440    1.67500
C    1.86000    1.06040    2.60800
N    2.17580    1.22380    3.90620
C    3.41180    1.44430    4.52030
N    3.31340    1.61470    5.86230
C    4.44860    1.83390    6.57120
C    5.71000    1.88830    5.97850
C    5.81370    1.70950    4.59460
C    7.16160    1.75540    3.88320
C    8.27120    2.69850    4.29830
C    8.42960    1.20590    4.50210
C    4.64780    1.48350    3.85570
C    0.39210    0.81340    2.33310
C    -0.43540    0.16530    3.26610
C    -1.78220    -0.04870    2.98330
C    -2.32520    0.37210    1.76840
B    -3.85680    0.12660    1.45120
O    -4.47620    0.50360    0.28110
C    -5.74840    -0.11710    0.25960
C    -6.70260    0.83590    -0.48820
C    -5.55810    -1.43030    -0.54010
C    -6.03990    -0.29190    1.79500
C    -6.58800    0.96290    2.51960
C    -6.86920    -1.53660    2.17050
O    -4.73670    -0.49090    2.31170
C    -1.50540    1.00500    0.83300
C    -0.15830    1.22070    1.11020
H    1.40210    1.21060    4.54380
H    4.33040    1.96730    7.63700
H    6.58740    2.06530    6.58140
H    7.07070    1.59910    2.80590
H    8.11150    3.34900    5.15920
H    8.84380    3.19600    3.51410
H    9.11450    0.64750    3.86220
H    8.38340    0.78880    5.50900
H    4.72190    1.34180    2.78960
H    -0.04930    -0.19660    4.20860
H    -2.41100    -0.55020    3.70580
H    -6.70370    1.83710    -0.05700
H    -7.72600    0.46220    -0.46590
H    -6.41180    0.94810    -1.53330
H    -6.49990    -1.96710    -0.64990
H    -4.84860    -2.10170    -0.05460
H    -5.17520    -1.23420    -1.54240
H    -7.61280    1.17790    2.21810
H    -5.98760    1.84840    2.30700
H    -6.58720    0.83020    3.60220
H    -7.86330    -1.49300    1.72630
H    -6.99060    -1.62100    3.25090
H    -6.39580    -2.46040    1.83770
H    -1.91600    1.32740    -0.11370
H    0.45980    1.70830    0.36710

--Link1--
%nprocs=16
%mem=16GB
%chk=pyrd4_conf-4.chk
# M062X/def2tzvp int=(grid=ultrafine) pop=nbo7 polar prop=efg volume guess=read geom=check

 pyrd4.xyz

0 1

--Link1--
%nprocs=16
%mem=16GB
%chk=pyrd4_conf-4.chk
# M062X/def2tzvp int=(grid=ultrafine) nmr=giao guess=read geom=check

 pyrd4.xyz

0 1

