%nprocs=16
%mem=16GB
%chk=pyrd4_conf-3.chk
# B3LYP/6-31G(d,p) symmetry=loose empiricaldispersion=GD3BJ int=(grid=ultrafine) opt freq=noraman

 pyrd4.xyz

0 1
O    2.68830    0.91600    1.69690
C    1.87330    0.96140    2.61770
N    2.18640    1.14340    3.91410
C    3.42070    1.37640    4.52720
N    3.33460    1.45260    5.87860
C    4.46870    1.67930    6.58700
C    5.71600    1.83930    5.98390
C    5.80620    1.76420    4.58960
C    7.13800    1.93150    3.86620
C    8.20300    2.90190    4.33220
C    8.44320    1.40940    4.42910
C    4.64150    1.53020    3.85130
C    0.39940    0.75990    2.33790
C    -0.59220    1.34070    3.14700
C    -1.94050    1.13780    2.86300
C    -2.32340    0.36070    1.76870
B    -3.85730    0.13270    1.44970
O    -4.32660    -0.61380    0.39250
C    -5.71620    -0.79840    0.59130
C    -6.36830    -0.85120    -0.80510
C    -5.85660    -2.16530    1.30660
C    -6.08190    0.46280    1.45650
C    -6.30010    1.77720    0.66590
C    -7.21750    0.25380    2.47860
O    -4.88970    0.65620    2.19540
C    -1.34310    -0.20810    0.95450
C    0.00610    -0.00780    1.23340
H    1.41940    1.07990    4.55660
H    4.36110    1.73130    7.66100
H    6.59310    2.01810    6.58670
H    7.03810    1.84450    2.78190
H    8.02350    3.48160    5.23860
H    8.73590    3.48240    3.57760
H    9.14580    0.93400    3.74310
H    8.43530    0.92150    5.40470
H    4.70430    1.47450    2.77650
H    -0.33830    1.96790    3.99000
H    -2.69670    1.59020    3.48940
H    -6.11760    0.02160    -1.40820
H    -7.45410    -0.90260    -0.72860
H    -6.03230    -1.72360    -1.36670
H    -6.90320    -2.42140    1.46910
H    -5.36010    -2.16760    2.27780
H    -5.41100    -2.96950    0.71980
H    -7.22490    1.74410    0.09060
H    -5.48360    1.97150    -0.03080
H    -6.36090    2.63800    1.33280
H    -8.15400    0.00900    1.97810
H    -7.38360    1.15110    3.07560
H    -6.99480    -0.54990    3.18060
H    -1.63080    -0.80510    0.10030
H    0.74890    -0.45400    0.58440

--Link1--
%nprocs=16
%mem=16GB
%chk=pyrd4_conf-3.chk
# M062X/def2tzvp int=(grid=ultrafine) pop=nbo7 polar prop=efg volume guess=read geom=check

 pyrd4.xyz

0 1

--Link1--
%nprocs=16
%mem=16GB
%chk=pyrd4_conf-3.chk
# M062X/def2tzvp int=(grid=ultrafine) nmr=giao guess=read geom=check

 pyrd4.xyz

0 1

